(set-logic HORN)
(set-info :source |
    Benchmark: C_VC
    Output by Princess (http://www.philipp.ruemmer.org/princess.shtml)
|)
(set-info :status sat)
;===============================================================================
; Encoding of Heap sorts and operations
;-------------------------------------------------------------------------------
(define-sort Addr() Int)
(declare-datatypes ((HeapObject 0) (node 0))
                   (((O_Int (getInt Int)) (O_UInt (getUInt Int)) (O_Addr (getAddr Addr)) (O_node (getnode node)) (defObj))
                   ((node (next Addr) (data Int)))))
(declare-datatypes ((AllocResHeap 0) (Heap 0))
                   (((AllocResHeap   (newHeap Heap) (newAddr Addr)))
                    ((HeapCtor (HeapSize Int)
                               (HeapContents (Array Addr HeapObject))))))
(define-fun nullAddr  () Addr 0)
(define-fun valid     ((h Heap) (p Addr)) Bool
  (and (>= (HeapSize h) p) (> p 0)))
(define-fun emptyHeap () Heap (
  HeapCtor 0 (( as const (Array Addr HeapObject)) defObj)))
(define-fun read ((h Heap) (p Addr)) HeapObject
  (ite (valid h p)
       (select (HeapContents h) p)
       defObj))
(define-fun write ((h Heap) (p Addr) (o HeapObject)) Heap
  (ite (valid h p)
       (HeapCtor (HeapSize h) (store (HeapContents h) p o))
       h))
(define-fun alloc   ((h Heap) (o HeapObject)) AllocResHeap
  (AllocResHeap (HeapCtor (+ 1 (HeapSize h))
                    (store (HeapContents h) (+ 1 (HeapSize h)) o))
          (+ 1 (HeapSize h))))

;===============================================================================
(declare-fun inv_main100 (Heap Int Int Addr Int Addr Int Addr) Bool)
(declare-fun inv_main12 (Heap Int Int Int Int Int Addr) Bool)
(declare-fun inv_main15 (Heap Int Int Int Int Int Addr Int) Bool)
(declare-fun inv_main18 (Heap Int Int Int Int Int Addr) Bool)
(declare-fun inv_main21 (Heap Int Int Int Int Addr Addr) Bool)
(declare-fun inv_main22 (Heap Int Int Int Int Addr Addr) Bool)
(declare-fun inv_main28 (Heap Int Int Int Int Addr Addr Int Addr) Bool)
(declare-fun inv_main31 (Heap Int Int Int Int Addr Addr Int Addr Int) Bool)
(declare-fun inv_main34 (Heap Int Int Int Int Addr Addr Int Addr) Bool)
(declare-fun inv_main36 (Heap Int Int Int Int Addr Addr Addr) Bool)
(declare-fun inv_main4 (Heap Int Int) Bool)
(declare-fun inv_main50 (Heap Int Int Addr Int Int Int Int Addr) Bool)
(declare-fun inv_main53 (Heap Int Int Addr Int Int Int Int Addr Int) Bool)
(declare-fun inv_main56 (Heap Int Int Addr Int Int Int Int Addr) Bool)
(declare-fun inv_main59 (Heap Int Int Addr Int Int Int Addr) Bool)
(declare-fun inv_main62 (Heap Int Int Addr Int Int Int Addr Addr) Bool)
(declare-fun inv_main63 (Heap Int Int Addr Int Int Int Addr Addr) Bool)
(declare-fun inv_main64 (Heap Int Int Addr Int Int Int Addr Addr) Bool)
(declare-fun inv_main67 (Heap Int Int Addr Int Int Int Addr Addr) Bool)
(declare-fun inv_main70 (Heap Int Int Addr Int Addr Int Addr) Bool)
(declare-fun inv_main71 (Heap Int Int Addr Int Addr Int Addr) Bool)
(declare-fun inv_main72 (Heap Int Int Addr Int Addr Int Addr) Bool)
(declare-fun inv_main75 (Heap Int Int Addr Int Addr Int Addr) Bool)
(declare-fun inv_main77 (Heap Int Int Addr Int Addr Int Addr) Bool)
(declare-fun inv_main93 (Heap Int Int Addr Int Addr Int Addr Addr) Bool)
(declare-fun inv_main97 (Heap Int Int Addr Int Addr Int Addr Addr Addr) Bool)
(assert (forall ((var0 Heap)) (or (not (= var0 emptyHeap)) (inv_main4 var0 2 1))))
(assert (forall ((var0 Addr) (var1 Addr) (var2 Int) (var3 Int) (var4 Int) (var5 Int) (var6 Int) (var7 Heap) (var8 Addr) (var9 Addr) (var10 Addr) (var11 Addr) (var12 Int) (var13 Int) (var14 Int) (var15 Addr) (var16 Int) (var17 Int) (var18 Heap)) (or (not (and (inv_main62 var18 var17 var16 var15 var14 var13 var12 var11 var10) (and (and (= var9 var8) (is-O_node (read var18 var10))) (and (and (and (and (and (and (and (and (and (= var7 var18) (= var6 var17)) (= var5 var16)) (= var8 var15)) (= var4 var14)) (= var3 var13)) (= var2 var12)) (= var1 var11)) (= var0 var10)) (= var9 (next (getnode (read var18 var10)))))))) (inv_main63 var7 var6 var5 var8 var4 var3 var2 var1 var0))))
(assert (forall ((var0 Addr) (var1 Int) (var2 Addr) (var3 Int) (var4 Addr) (var5 Int) (var6 Int) (var7 Heap)) (or (not (and (inv_main71 var7 var6 var5 var4 var3 var2 var1 var0) (and (is-O_node (read var7 var2)) (not (= var5 (data (getnode (read var7 var2)))))))) (inv_main100 var7 var6 var5 var4 var3 var2 var1 var0))))
(assert (forall ((var0 Addr) (var1 Int) (var2 Addr) (var3 Int) (var4 Addr) (var5 Int) (var6 Int) (var7 Heap)) (or (not (and (inv_main75 var7 var6 var5 var4 var3 var2 var1 var0) (and (is-O_node (read var7 var2)) (not (= var3 (data (getnode (read var7 var2)))))))) (inv_main100 var7 var6 var5 var4 var3 var2 var1 var0))))
(assert (forall ((var0 Addr) (var1 Int) (var2 Addr) (var3 Int) (var4 Addr) (var5 Int) (var6 Int) (var7 Heap)) (or (not (and (inv_main75 var7 var6 var5 var4 var3 var2 var1 var0) (and (not (= (+ var1 1) (+ 1 var6))) (and (is-O_node (read var7 var2)) (= var3 (data (getnode (read var7 var2)))))))) (inv_main100 var7 var6 var5 var4 var3 var2 (+ var1 1) var0))))
(assert (forall ((var0 Addr) (var1 Int) (var2 Addr) (var3 Int) (var4 Addr) (var5 Int) (var6 Int) (var7 Heap)) (or (not (and (inv_main75 var7 var6 var5 var4 var3 var2 var1 var0) (and (not (= nullAddr var4)) (and (= (+ var1 1) (+ 1 var6)) (and (is-O_node (read var7 var2)) (= var3 (data (getnode (read var7 var2))))))))) (inv_main93 var7 var6 var5 var4 var3 var2 (+ var1 1) var0 var4))))
(assert (forall ((var0 Addr) (var1 Int) (var2 Addr) (var3 Int) (var4 Addr) (var5 Int) (var6 Int) (var7 Heap) (var8 Addr) (var9 Addr) (var10 Addr) (var11 Addr) (var12 Int) (var13 Addr) (var14 Int) (var15 Addr) (var16 Int) (var17 Int) (var18 Heap)) (or (not (and (inv_main93 var18 var17 var16 var15 var14 var13 var12 var11 var10) (and (and (not (= var9 var8)) (is-O_node (read var18 var10))) (and (and (and (and (and (and (and (and (and (= var7 var18) (= var6 var17)) (= var5 var16)) (= var4 var15)) (= var3 var14)) (= var2 var13)) (= var1 var12)) (= var0 var11)) (= var8 var10)) (= var9 (next (getnode (read var18 var10)))))))) (inv_main97 var7 var6 var5 var4 var3 var2 var1 var0 var8 var9))))
(assert (forall ((var0 Addr) (var1 Addr) (var2 Int) (var3 Addr) (var4 Int) (var5 Addr) (var6 Int) (var7 Int) (var8 Heap) (var9 Addr) (var10 Addr) (var11 Addr) (var12 Addr) (var13 Int) (var14 Addr) (var15 Int) (var16 Addr) (var17 Int) (var18 Int) (var19 Heap) (var20 Addr) (var21 Addr) (var22 Addr) (var23 Addr) (var24 Addr) (var25 Int) (var26 Addr) (var27 Int) (var28 Addr) (var29 Int) (var30 Int) (var31 Heap)) (or (not (and (inv_main97 var31 var30 var29 var28 var27 var26 var25 var24 var23 var22) (and (not (= var21 var20)) (and (and (is-O_node (read var31 var22)) (and (and (and (and (and (and (and (and (and (and (= var19 var31) (= var18 var30)) (= var17 var29)) (= var16 var28)) (= var15 var27)) (= var14 var26)) (= var13 var25)) (= var12 var24)) (= var11 var23)) (= var10 var22)) (= var9 (next (getnode (read var31 var22)))))) (and (and (and (and (and (and (and (and (and (and (= var8 (write var19 var10 defObj)) (= var7 var18)) (= var6 var17)) (= var5 var16)) (= var4 var15)) (= var3 var14)) (= var2 var13)) (= var1 var12)) (= var20 var11)) (= var0 var10)) (= var21 var9)))))) (inv_main97 var8 var7 var6 var5 var4 var3 var2 var1 var20 var21))))
(assert (forall ((var0 Addr) (var1 Addr) (var2 Int) (var3 Int) (var4 Int) (var5 Addr) (var6 Int) (var7 Int) (var8 Heap)) (or (not (and (inv_main63 var8 var7 var6 var5 var4 var3 var2 var1 var0) (is-O_node (read var8 var0)))) (inv_main67 (write var8 var0 (O_node (node var1 (data (getnode (read var8 var0)))))) var7 var6 var5 var4 var3 var2 var1 var0))))
(assert (forall ((var0 Addr) (var1 Int) (var2 Int) (var3 Int) (var4 Int) (var5 Addr) (var6 Int) (var7 Int) (var8 Heap)) (or (not (and (inv_main50 var8 var7 var6 var5 var4 var3 var2 var1 var0) (is-O_node (read var8 var0)))) (inv_main56 (write var8 var0 (O_node (node nullAddr (data (getnode (read var8 var0)))))) var7 var6 var5 var4 var3 var2 var1 var0))))
(assert (forall ((var0 Int) (var1 Addr) (var2 Int) (var3 Addr) (var4 Addr) (var5 Int) (var6 Int) (var7 Int) (var8 Int) (var9 Heap)) (or (not (inv_main31 var9 var8 var7 var6 var5 var4 var3 var2 var1 var0)) (inv_main31 var9 var8 var7 var6 var5 var4 var3 var2 var1 var0))))
(assert (forall ((var0 Int) (var1 Addr) (var2 Addr) (var3 Int) (var4 Int) (var5 Int) (var6 Int) (var7 node) (var8 Heap) (var9 Addr) (var10 Addr) (var11 Addr) (var12 Int) (var13 Int) (var14 Int) (var15 Int) (var16 Heap)) (or (not (and (inv_main21 var16 var15 var14 var13 var12 var11 var10) (and (and (= nullAddr var9) (and (and (and (and (and (and (and (and (= var8 (newHeap (alloc var16 (O_node var7)))) (= var6 var15)) (= var5 var14)) (= var4 var13)) (= var3 var12)) (= var2 var11)) (= var1 var10)) (= var0 var12)) (= var9 (newAddr (alloc var16 (O_node var7)))))) (<= 0 (+ (+ var13 (- 1)) (- 1)))))) (inv_main31 var8 var6 var5 var4 var3 var2 var1 var0 var9 1))))
(assert (forall ((var0 Int) (var1 Addr) (var2 Addr) (var3 Int) (var4 Int) (var5 Int) (var6 Int) (var7 node) (var8 Heap) (var9 Addr) (var10 Addr) (var11 Addr) (var12 Int) (var13 Int) (var14 Int) (var15 Int) (var16 Heap)) (or (not (and (inv_main21 var16 var15 var14 var13 var12 var11 var10) (and (and (not (= nullAddr var9)) (and (and (and (and (and (and (and (and (= var8 (newHeap (alloc var16 (O_node var7)))) (= var6 var15)) (= var5 var14)) (= var4 var13)) (= var3 var12)) (= var2 var11)) (= var1 var10)) (= var0 var12)) (= var9 (newAddr (alloc var16 (O_node var7)))))) (<= 0 (+ (+ var13 (- 1)) (- 1)))))) (inv_main28 var8 var6 var5 var4 var3 var2 var1 var0 var9))))
(assert (forall ((var0 Int) (var1 Int) (var2 Int) (var3 Int) (var4 Int) (var5 node) (var6 Heap) (var7 Addr) (var8 Int) (var9 Int) (var10 Heap)) (or (not (and (inv_main4 var10 var9 var8) (and (not (= nullAddr var7)) (and (and (and (and (and (and (= var6 (newHeap (alloc var10 (O_node var5)))) (= var4 var9)) (= var3 var8)) (= var2 var9)) (= var1 var8)) (= var0 var8)) (= var7 (newAddr (alloc var10 (O_node var5)))))))) (inv_main12 var6 var4 var3 var2 var1 var0 var7))))
(assert (forall ((var0 Addr) (var1 Addr) (var2 Int) (var3 Int) (var4 Int) (var5 Int) (var6 Int) (var7 Heap) (var8 Addr) (var9 Addr) (var10 Addr) (var11 Addr) (var12 Int) (var13 Int) (var14 Int) (var15 Addr) (var16 Int) (var17 Int) (var18 Heap)) (or (not (and (inv_main62 var18 var17 var16 var15 var14 var13 var12 var11 var10) (and (and (not (= var9 var8)) (is-O_node (read var18 var10))) (and (and (and (and (and (and (and (and (and (= var7 var18) (= var6 var17)) (= var5 var16)) (= var8 var15)) (= var4 var14)) (= var3 var13)) (= var2 var12)) (= var1 var11)) (= var0 var10)) (= var9 (next (getnode (read var18 var10)))))))) (inv_main64 var7 var6 var5 var8 var4 var3 var2 var1 var0))))
(assert (forall ((var0 Addr) (var1 Int) (var2 Int) (var3 Int) (var4 Int) (var5 Int) (var6 Heap)) (or (not (and (inv_main12 var6 var5 var4 var3 var2 var1 var0) (is-O_node (read var6 var0)))) (inv_main18 (write var6 var0 (O_node (node nullAddr (data (getnode (read var6 var0)))))) var5 var4 var3 var2 var1 var0))))
(assert (forall ((var0 Addr) (var1 Int) (var2 Int) (var3 Int) (var4 Int) (var5 Int) (var6 Int) (var7 Heap) (var8 Addr) (var9 Addr) (var10 Int) (var11 Int) (var12 Int) (var13 Int) (var14 Addr) (var15 Int) (var16 Int) (var17 Heap)) (or (not (and (inv_main56 var17 var16 var15 var14 var13 var12 var11 var10 var9) (and (= nullAddr var8) (and (is-O_node (read var17 var9)) (and (and (and (and (and (and (and (and (= var7 (write var17 var9 (O_node (node (next (getnode (read var17 var9))) var10)))) (= var6 var16)) (= var5 var15)) (= var8 var14)) (= var4 var13)) (= var3 var12)) (= var2 var11)) (= var1 var10)) (= var0 var9)))))) (inv_main59 var7 var6 var5 var8 var4 var3 var2 var0))))
(assert (forall ((var0 Addr) (var1 Addr) (var2 Int) (var3 Int) (var4 Int) (var5 Int) (var6 Heap)) (or (not (and (inv_main21 var6 var5 var4 var3 var2 var1 var0) (not (<= 0 (+ (+ var3 (- 1)) (- 1)))))) (inv_main22 var6 var5 var4 var3 var2 var1 var0))))
(assert (forall ((var0 Addr) (var1 Int) (var2 Addr) (var3 Int) (var4 Addr) (var5 Int) (var6 Int) (var7 Heap)) (or (not (and (inv_main71 var7 var6 var5 var4 var3 var2 var1 var0) (and (is-O_node (read var7 var2)) (= var5 (data (getnode (read var7 var2))))))) (inv_main77 var7 var6 var5 var4 var3 var2 var1 var0))))
(assert (forall ((var0 Addr) (var1 Int) (var2 Addr) (var3 Int) (var4 Int) (var5 Int) (var6 Heap) (var7 Addr) (var8 Addr) (var9 Addr) (var10 Int) (var11 Addr) (var12 Int) (var13 Addr) (var14 Int) (var15 Int) (var16 Heap)) (or (not (and (inv_main70 var16 var15 var14 var13 var12 var11 var10 var9) (and (and (= var8 var7) (is-O_node (read var16 var9))) (and (and (and (and (and (and (and (and (= var6 var16) (= var5 var15)) (= var4 var14)) (= var7 var13)) (= var3 var12)) (= var2 var11)) (= var1 var10)) (= var0 var9)) (= var8 (next (getnode (read var16 var9)))))))) (inv_main71 var6 var5 var4 var7 var3 var2 var1 var0))))
(assert (forall ((var0 Int) (var1 Addr) (var2 Int) (var3 Addr) (var4 Int) (var5 Int) (var6 Heap) (var7 Addr) (var8 Addr) (var9 Addr) (var10 Int) (var11 Addr) (var12 Int) (var13 Addr) (var14 Int) (var15 Int) (var16 Heap)) (or (not (and (inv_main77 var16 var15 var14 var13 var12 var11 var10 var9) (and (not (= var8 var7)) (and (is-O_node (read var16 var11)) (and (and (and (and (and (and (and (and (= var6 var16) (= var5 var15)) (= var4 var14)) (= var3 var13)) (= var2 var12)) (= var1 var11)) (= var0 var10)) (= var7 var9)) (= var8 (next (getnode (read var16 var11))))))))) (inv_main71 var6 var5 var4 var3 var2 var8 (+ var0 1) var7))))
(assert (forall ((var0 Addr) (var1 Addr) (var2 Addr) (var3 Int) (var4 Int) (var5 Int) (var6 Addr) (var7 Int) (var8 Int) (var9 Heap) (var10 Addr) (var11 Addr) (var12 Int) (var13 Int) (var14 Int) (var15 Addr) (var16 Int) (var17 Int) (var18 Heap)) (or (not (and (inv_main64 var18 var17 var16 var15 var14 var13 var12 var11 var10) (and (is-O_node (read var18 var10)) (and (and (and (and (and (and (and (and (and (= var9 var18) (= var8 var17)) (= var7 var16)) (= var6 var15)) (= var5 var14)) (= var4 var13)) (= var3 var12)) (= var2 var11)) (= var1 var10)) (= var0 (next (getnode (read var18 var10)))))))) (inv_main62 var9 var8 var7 var6 var5 var4 var3 var2 var0))))
(assert (forall ((var0 Addr) (var1 Int) (var2 Int) (var3 Int) (var4 Int) (var5 Int) (var6 Int) (var7 Heap) (var8 Addr) (var9 Addr) (var10 Int) (var11 Int) (var12 Int) (var13 Int) (var14 Addr) (var15 Int) (var16 Int) (var17 Heap)) (or (not (and (inv_main56 var17 var16 var15 var14 var13 var12 var11 var10 var9) (and (not (= nullAddr var8)) (and (is-O_node (read var17 var9)) (and (and (and (and (and (and (and (and (= var7 (write var17 var9 (O_node (node (next (getnode (read var17 var9))) var10)))) (= var6 var16)) (= var5 var15)) (= var8 var14)) (= var4 var13)) (= var3 var12)) (= var2 var11)) (= var1 var10)) (= var0 var9)))))) (inv_main62 var7 var6 var5 var8 var4 var3 var2 var0 var8))))
(assert (forall ((var0 Addr) (var1 Int) (var2 Addr) (var3 Addr) (var4 Int) (var5 Int) (var6 Int) (var7 Int) (var8 Heap)) (or (not (and (inv_main28 var8 var7 var6 var5 var4 var3 var2 var1 var0) (is-O_node (read var8 var0)))) (inv_main34 (write var8 var0 (O_node (node nullAddr (data (getnode (read var8 var0)))))) var7 var6 var5 var4 var3 var2 var1 var0))))
(assert (forall ((var0 Int) (var1 Addr) (var2 Int) (var3 Int) (var4 Int) (var5 Int) (var6 Addr) (var7 Int) (var8 Int) (var9 Heap)) (or (not (inv_main53 var9 var8 var7 var6 var5 var4 var3 var2 var1 var0)) (inv_main53 var9 var8 var7 var6 var5 var4 var3 var2 var1 var0))))
(assert (forall ((var0 Addr) (var1 Int) (var2 Int) (var3 Int) (var4 Int) (var5 Int) (var6 Int) (var7 Addr) (var8 Addr) (var9 Int) (var10 Int) (var11 Int) (var12 Int) (var13 node) (var14 Heap) (var15 Heap) (var16 Addr) (var17 Addr) (var18 Addr) (var19 Int) (var20 Int) (var21 Int) (var22 Int) (var23 Heap)) (or (not (and (inv_main22 var23 var22 var21 var20 var19 var18 var17) (and (and (= nullAddr var16) (and (and (and (and (and (and (and (and (= var15 (newHeap (alloc var14 (O_node var13)))) (= var12 var11)) (= var10 var9)) (= var8 var7)) (= var6 5)) (= var5 3)) (= var4 5)) (= var3 5)) (= var16 (newAddr (alloc var14 (O_node var13)))))) (and (is-O_node (read var23 var17)) (and (and (and (and (and (and (= var14 (write var23 var17 (O_node (node var18 (data (getnode (read var23 var17))))))) (= var11 var22)) (= var9 var21)) (= var2 var20)) (= var1 var19)) (= var7 var18)) (= var0 var17)))))) (inv_main53 var15 var12 var10 var8 var6 var5 var4 var3 var16 1))))
(assert (forall ((var0 Addr) (var1 Addr) (var2 Int) (var3 Addr) (var4 Int) (var5 Addr) (var6 Int) (var7 Int) (var8 Heap) (var9 Addr) (var10 Int) (var11 Addr) (var12 Int) (var13 Addr) (var14 Int) (var15 Int) (var16 Heap)) (or (not (and (inv_main72 var16 var15 var14 var13 var12 var11 var10 var9) (and (is-O_node (read var16 var9)) (and (and (and (and (and (and (and (and (= var8 var16) (= var7 var15)) (= var6 var14)) (= var5 var13)) (= var4 var12)) (= var3 var11)) (= var2 var10)) (= var1 var9)) (= var0 (next (getnode (read var16 var9)))))))) (inv_main70 var8 var7 var6 var5 var4 var3 var2 var0))))
(assert (forall ((var0 Int) (var1 Int) (var2 Int) (var3 Addr) (var4 Int) (var5 Int) (var6 Heap) (var7 Addr) (var8 Addr) (var9 Int) (var10 Int) (var11 Int) (var12 Addr) (var13 Int) (var14 Int) (var15 Heap)) (or (not (and (inv_main67 var15 var14 var13 var12 var11 var10 var9 var8 var7) (and (is-O_node (read var15 var8)) (and (and (and (and (and (and (= var6 (write var15 var8 (O_node (node var12 (data (getnode (read var15 var8))))))) (= var5 var14)) (= var4 var13)) (= var3 var12)) (= var2 var11)) (= var1 var10)) (= var0 var9))))) (inv_main70 var6 var5 var4 var3 var2 var3 0 var3))))
(assert (forall ((var0 Addr) (var1 Int) (var2 Int) (var3 Int) (var4 Addr) (var5 Int) (var6 Int) (var7 Heap) (var8 Addr) (var9 Int) (var10 Int) (var11 Int) (var12 Addr) (var13 Int) (var14 Int) (var15 Heap)) (or (not (and (inv_main59 var15 var14 var13 var12 var11 var10 var9 var8) (and (is-O_node (read var15 var8)) (and (and (and (and (and (and (and (= var7 (write var15 var8 (O_node (node var8 (data (getnode (read var15 var8))))))) (= var6 var14)) (= var5 var13)) (= var4 var12)) (= var3 var11)) (= var2 var10)) (= var1 var9)) (= var0 var8))))) (inv_main70 var7 var6 var5 var0 var3 var0 0 var0))))
(assert (forall ((var0 Addr) (var1 Int) (var2 Int) (var3 Int) (var4 Int) (var5 Int) (var6 Int) (var7 Addr) (var8 Addr) (var9 Int) (var10 Int) (var11 Int) (var12 Int) (var13 node) (var14 Heap) (var15 Heap) (var16 Addr) (var17 Addr) (var18 Addr) (var19 Int) (var20 Int) (var21 Int) (var22 Int) (var23 Heap)) (or (not (and (inv_main22 var23 var22 var21 var20 var19 var18 var17) (and (and (not (= nullAddr var16)) (and (and (and (and (and (and (and (and (= var15 (newHeap (alloc var14 (O_node var13)))) (= var12 var11)) (= var10 var9)) (= var8 var7)) (= var6 5)) (= var5 3)) (= var4 5)) (= var3 5)) (= var16 (newAddr (alloc var14 (O_node var13)))))) (and (is-O_node (read var23 var17)) (and (and (and (and (and (and (= var14 (write var23 var17 (O_node (node var18 (data (getnode (read var23 var17))))))) (= var11 var22)) (= var9 var21)) (= var2 var20)) (= var1 var19)) (= var7 var18)) (= var0 var17)))))) (inv_main50 var15 var12 var10 var8 var6 var5 var4 var3 var16))))
(assert (forall ((var0 Addr) (var1 Int) (var2 Addr) (var3 Addr) (var4 Int) (var5 Int) (var6 Int) (var7 Int) (var8 Heap) (var9 Addr) (var10 Int) (var11 Addr) (var12 Addr) (var13 Int) (var14 Int) (var15 Int) (var16 Int) (var17 Heap)) (or (not (and (inv_main34 var17 var16 var15 var14 var13 var12 var11 var10 var9) (and (is-O_node (read var17 var9)) (and (and (and (and (and (and (and (and (= var8 (write var17 var9 (O_node (node (next (getnode (read var17 var9))) var10)))) (= var7 var16)) (= var6 var15)) (= var5 var14)) (= var4 var13)) (= var3 var12)) (= var2 var11)) (= var1 var10)) (= var0 var9))))) (inv_main36 var8 var7 var6 var5 var4 var3 var2 var0))))
(assert (forall ((var0 Int) (var1 Addr) (var2 Int) (var3 Addr) (var4 Int) (var5 Int) (var6 Heap) (var7 Addr) (var8 Addr) (var9 Addr) (var10 Int) (var11 Addr) (var12 Int) (var13 Addr) (var14 Int) (var15 Int) (var16 Heap)) (or (not (and (inv_main77 var16 var15 var14 var13 var12 var11 var10 var9) (and (= var8 var7) (and (is-O_node (read var16 var11)) (and (and (and (and (and (and (and (and (= var6 var16) (= var5 var15)) (= var4 var14)) (= var3 var13)) (= var2 var12)) (= var1 var11)) (= var0 var10)) (= var7 var9)) (= var8 (next (getnode (read var16 var11))))))))) (inv_main75 var6 var5 var4 var3 var2 var8 (+ var0 1) var7))))
(assert (forall ((var0 Addr) (var1 Addr) (var2 Addr) (var3 Int) (var4 Int) (var5 Int) (var6 Int) (var7 Heap) (var8 Addr) (var9 Addr) (var10 Addr) (var11 Int) (var12 Int) (var13 Int) (var14 Int) (var15 Heap)) (or (not (and (inv_main36 var15 var14 var13 var12 var11 var10 var9 var8) (and (is-O_node (read var15 var8)) (and (and (and (and (and (and (and (= var7 (write var15 var8 (O_node (node var10 (data (getnode (read var15 var8))))))) (= var6 var14)) (= var5 var13)) (= var4 var12)) (= var3 var11)) (= var2 var10)) (= var1 var9)) (= var0 var8))))) (inv_main21 var7 var6 var5 (+ var4 (- 1)) var3 var0 var1))))
(assert (forall ((var0 Addr) (var1 Int) (var2 Int) (var3 Int) (var4 Int) (var5 Int) (var6 Heap) (var7 Addr) (var8 Int) (var9 Int) (var10 Int) (var11 Int) (var12 Int) (var13 Heap)) (or (not (and (inv_main18 var13 var12 var11 var10 var9 var8 var7) (and (is-O_node (read var13 var7)) (and (and (and (and (and (and (= var6 (write var13 var7 (O_node (node (next (getnode (read var13 var7))) var8)))) (= var5 var12)) (= var4 var11)) (= var3 var10)) (= var2 var9)) (= var1 var8)) (= var0 var7))))) (inv_main21 var6 var5 var4 var3 var2 var0 var0))))
(assert (forall ((var0 Int) (var1 Addr) (var2 Int) (var3 Int) (var4 Int) (var5 Int) (var6 Int) (var7 Heap)) (or (not (inv_main15 var7 var6 var5 var4 var3 var2 var1 var0)) (inv_main15 var7 var6 var5 var4 var3 var2 var1 var0))))
(assert (forall ((var0 Int) (var1 Int) (var2 Int) (var3 Int) (var4 Int) (var5 node) (var6 Heap) (var7 Addr) (var8 Int) (var9 Int) (var10 Heap)) (or (not (and (inv_main4 var10 var9 var8) (and (= nullAddr var7) (and (and (and (and (and (and (= var6 (newHeap (alloc var10 (O_node var5)))) (= var4 var9)) (= var3 var8)) (= var2 var9)) (= var1 var8)) (= var0 var8)) (= var7 (newAddr (alloc var10 (O_node var5)))))))) (inv_main15 var6 var4 var3 var2 var1 var0 var7 1))))
(assert (forall ((var0 Addr) (var1 Int) (var2 Addr) (var3 Int) (var4 Int) (var5 Int) (var6 Heap) (var7 Addr) (var8 Addr) (var9 Addr) (var10 Int) (var11 Addr) (var12 Int) (var13 Addr) (var14 Int) (var15 Int) (var16 Heap)) (or (not (and (inv_main70 var16 var15 var14 var13 var12 var11 var10 var9) (and (and (not (= var8 var7)) (is-O_node (read var16 var9))) (and (and (and (and (and (and (and (and (= var6 var16) (= var5 var15)) (= var4 var14)) (= var7 var13)) (= var3 var12)) (= var2 var11)) (= var1 var10)) (= var0 var9)) (= var8 (next (getnode (read var16 var9)))))))) (inv_main72 var6 var5 var4 var7 var3 var2 var1 var0))))
(assert (forall ((var0 Addr) (var1 Int) (var2 Int) (var3 Int) (var4 Int) (var5 Int) (var6 Heap)) (not (and (inv_main12 var6 var5 var4 var3 var2 var1 var0) (not (is-O_node (read var6 var0)))))))
(assert (forall ((var0 Addr) (var1 Int) (var2 Int) (var3 Int) (var4 Int) (var5 Int) (var6 Heap)) (not (and (inv_main18 var6 var5 var4 var3 var2 var1 var0) (not (is-O_node (read var6 var0)))))))
(assert (forall ((var0 Addr) (var1 Int) (var2 Addr) (var3 Addr) (var4 Int) (var5 Int) (var6 Int) (var7 Int) (var8 Heap)) (not (and (inv_main28 var8 var7 var6 var5 var4 var3 var2 var1 var0) (not (is-O_node (read var8 var0)))))))
(assert (forall ((var0 Addr) (var1 Int) (var2 Addr) (var3 Addr) (var4 Int) (var5 Int) (var6 Int) (var7 Int) (var8 Heap)) (not (and (inv_main34 var8 var7 var6 var5 var4 var3 var2 var1 var0) (not (is-O_node (read var8 var0)))))))
(assert (forall ((var0 Addr) (var1 Addr) (var2 Addr) (var3 Int) (var4 Int) (var5 Int) (var6 Int) (var7 Heap)) (not (and (inv_main36 var7 var6 var5 var4 var3 var2 var1 var0) (not (is-O_node (read var7 var0)))))))
(assert (forall ((var0 Addr) (var1 Addr) (var2 Int) (var3 Int) (var4 Int) (var5 Int) (var6 Heap)) (not (and (inv_main22 var6 var5 var4 var3 var2 var1 var0) (not (is-O_node (read var6 var0)))))))
(assert (forall ((var0 Addr) (var1 Int) (var2 Int) (var3 Int) (var4 Int) (var5 Addr) (var6 Int) (var7 Int) (var8 Heap)) (not (and (inv_main50 var8 var7 var6 var5 var4 var3 var2 var1 var0) (not (is-O_node (read var8 var0)))))))
(assert (forall ((var0 Addr) (var1 Int) (var2 Int) (var3 Int) (var4 Int) (var5 Addr) (var6 Int) (var7 Int) (var8 Heap)) (not (and (inv_main56 var8 var7 var6 var5 var4 var3 var2 var1 var0) (not (is-O_node (read var8 var0)))))))
(assert (forall ((var0 Addr) (var1 Int) (var2 Int) (var3 Int) (var4 Addr) (var5 Int) (var6 Int) (var7 Heap)) (not (and (inv_main59 var7 var6 var5 var4 var3 var2 var1 var0) (not (is-O_node (read var7 var0)))))))
(assert (forall ((var0 Addr) (var1 Addr) (var2 Int) (var3 Int) (var4 Int) (var5 Addr) (var6 Int) (var7 Int) (var8 Heap)) (not (and (inv_main62 var8 var7 var6 var5 var4 var3 var2 var1 var0) (not (is-O_node (read var8 var0)))))))
(assert (forall ((var0 Addr) (var1 Addr) (var2 Int) (var3 Int) (var4 Int) (var5 Addr) (var6 Int) (var7 Int) (var8 Heap)) (not (and (inv_main64 var8 var7 var6 var5 var4 var3 var2 var1 var0) (not (is-O_node (read var8 var0)))))))
(assert (forall ((var0 Addr) (var1 Addr) (var2 Int) (var3 Int) (var4 Int) (var5 Addr) (var6 Int) (var7 Int) (var8 Heap)) (not (and (inv_main63 var8 var7 var6 var5 var4 var3 var2 var1 var0) (not (is-O_node (read var8 var0)))))))
(assert (forall ((var0 Addr) (var1 Addr) (var2 Int) (var3 Int) (var4 Int) (var5 Addr) (var6 Int) (var7 Int) (var8 Heap)) (not (and (inv_main67 var8 var7 var6 var5 var4 var3 var2 var1 var0) (not (is-O_node (read var8 var1)))))))
(assert (forall ((var0 Addr) (var1 Int) (var2 Addr) (var3 Int) (var4 Addr) (var5 Int) (var6 Int) (var7 Heap)) (not (and (inv_main70 var7 var6 var5 var4 var3 var2 var1 var0) (not (is-O_node (read var7 var0)))))))
(assert (forall ((var0 Addr) (var1 Int) (var2 Addr) (var3 Int) (var4 Addr) (var5 Int) (var6 Int) (var7 Heap)) (not (and (inv_main72 var7 var6 var5 var4 var3 var2 var1 var0) (not (is-O_node (read var7 var0)))))))
(assert (forall ((var0 Addr) (var1 Int) (var2 Addr) (var3 Int) (var4 Addr) (var5 Int) (var6 Int) (var7 Heap)) (not (and (inv_main71 var7 var6 var5 var4 var3 var2 var1 var0) (not (is-O_node (read var7 var2)))))))
(assert (forall ((var0 Addr) (var1 Int) (var2 Addr) (var3 Int) (var4 Addr) (var5 Int) (var6 Int) (var7 Heap)) (not (and (inv_main77 var7 var6 var5 var4 var3 var2 var1 var0) (not (is-O_node (read var7 var2)))))))
(assert (forall ((var0 Addr) (var1 Int) (var2 Addr) (var3 Int) (var4 Addr) (var5 Int) (var6 Int) (var7 Heap)) (not (and (inv_main75 var7 var6 var5 var4 var3 var2 var1 var0) (not (is-O_node (read var7 var2)))))))
(assert (forall ((var0 Addr) (var1 Addr) (var2 Int) (var3 Addr) (var4 Int) (var5 Addr) (var6 Int) (var7 Int) (var8 Heap)) (not (and (inv_main93 var8 var7 var6 var5 var4 var3 var2 var1 var0) (not (is-O_node (read var8 var0)))))))
(assert (forall ((var0 Addr) (var1 Addr) (var2 Addr) (var3 Int) (var4 Addr) (var5 Int) (var6 Addr) (var7 Int) (var8 Int) (var9 Heap)) (not (and (inv_main97 var9 var8 var7 var6 var5 var4 var3 var2 var1 var0) (not (is-O_node (read var9 var0)))))))
(assert (forall ((var0 Addr) (var1 Int) (var2 Addr) (var3 Int) (var4 Addr) (var5 Int) (var6 Int) (var7 Heap)) (not (inv_main100 var7 var6 var5 var4 var3 var2 var1 var0))))
(check-sat)
